50
120
100
97
96
92
89
86
83
83
82
79
77
76
73
73
70
69
69
61
60
60
60
58
56
56
53
51
49
48
48
48
47
46
42
41
36
35
34
32
32
32
31
22
17
12
12
6
6
5
3
2
